language ESSENCE' 1.0

letting jobs = 102
letting horizon = 796
letting resourcesRenew = 2
letting resourcesNonrenew = 2
letting resourceLimits = [47, 42, 498, 479]
letting successors = [[2, 3, 4, 5, 6, 7, 8, 9, 10, 13, 14, 15, 16, 17, 18, 19, 20, 21, 22, 24, 25, 26, 27, 30, 31, 32, 33, 35, 37, 54], [93, 69, 56, 51, 46, 42, 41, 36, 29, 23, 11], [101, 98, 70, 69, 67, 66, 65, 62, 61, 60, 56, 50, 49, 45, 44, 42, 36, 29, 28], [100, 99, 97, 96, 92, 67, 62, 61, 60, 59, 56, 51, 48, 45, 43, 39, 36, 34], [101, 100, 99, 98, 97, 96, 95, 94, 89, 88, 69, 67, 66, 61, 60, 49, 47, 46, 45, 43, 40, 39, 36], [98, 92, 90, 88, 86, 82, 70, 69, 67, 66, 61, 60, 57, 55, 50, 47, 45, 44, 29], [95, 69, 55, 47, 36, 12], [99, 97, 96, 95, 94, 93, 91, 89, 88, 87, 86, 84, 68, 67, 64, 63, 60, 59, 58, 57, 52, 51, 49, 39], [101, 99, 97, 96, 95, 94, 92, 91, 89, 88, 84, 82, 81, 80, 67, 64, 63, 62, 59, 58, 49, 46, 44], [97, 94, 93, 88, 87, 82, 62, 60, 57, 49, 42, 28], [99, 98, 97, 96, 95, 92, 89, 87, 85, 84, 70, 64, 63, 62, 61, 60, 59, 58, 57, 39], [99, 98, 94, 93, 92, 90, 88, 86, 85, 84, 82, 81, 80, 66, 64, 58, 57, 44, 38], [97, 95, 94, 92, 90, 88, 86, 85, 84, 70, 68, 64, 61, 60, 59, 58, 44, 36], [96, 91, 90, 79, 78, 70, 69, 67, 60, 57, 56, 52, 49, 34], [98, 97, 93, 92, 91, 89, 88, 87, 86, 83, 80, 79, 76, 74, 68, 66, 63, 59, 53, 49, 48], [97, 91, 89, 88, 86, 85, 84, 81, 66, 63, 58, 57, 48, 45, 44, 39], [99, 98, 95, 93, 92, 91, 89, 87, 86, 85, 84, 81, 80, 73, 66, 63, 59, 58, 57, 39], [101, 100, 94, 93, 89, 85, 80, 73, 68, 64, 63, 62, 61, 60, 44, 39], [100, 98, 90, 88, 85, 83, 82, 79, 77, 65, 64, 58, 57, 52, 47, 45], [96, 91, 90, 88, 86, 85, 82, 65, 61, 60, 57, 53, 45, 44], [98, 96, 93, 91, 89, 88, 87, 86, 84, 80, 77, 68, 55, 46, 39], [99, 97, 93, 92, 90, 89, 88, 85, 82, 80, 73, 64, 63, 60, 59, 57, 44], [100, 95, 94, 87, 85, 84, 82, 78, 63, 58, 57, 55, 40], [98, 97, 96, 90, 89, 85, 84, 82, 81, 80, 74, 73, 63, 62, 58, 44], [91, 90, 86, 84, 79, 66, 63, 59, 57, 56, 51, 45], [98, 97, 88, 85, 82, 81, 75, 59, 46, 45, 44], [97, 95, 93, 92, 85, 84, 83, 82, 81, 80, 79, 78, 75, 73, 71, 64, 59, 57], [92, 89, 86, 85, 84, 83, 80, 79, 76, 74, 73, 68, 64, 63, 59, 58], [99, 97, 96, 89, 85, 84, 83, 80, 79, 78, 73, 64, 63, 59, 58], [94, 92, 86, 84, 82, 80, 79, 78, 77, 76, 74, 65, 58, 49], [91, 88, 85, 82, 81, 80, 76, 75, 74, 73, 66, 44], [101, 95, 94, 88, 84, 78, 77, 74, 73, 65, 64, 62, 58], [94, 88, 82, 79, 72, 63, 58, 57, 45], [98, 89, 86, 85, 84, 81, 80, 75, 66, 50], [95, 94, 90, 89, 87, 82, 81, 80, 79, 74, 73, 61], [91, 87, 83, 82, 80, 78, 73, 72, 71, 63, 57], [99, 98, 93, 92, 90, 84, 83, 76, 75, 74, 55], [96, 89, 79, 74, 73, 72, 67, 63, 61], [90, 83, 82, 79, 78, 76, 74, 72, 71, 65], [92, 91, 83, 81, 80, 79, 74, 73, 59], [91, 88, 85, 75, 72, 71, 67, 57], [96, 90, 89, 86, 78, 73, 72, 71, 68], [82, 79, 78, 76, 74, 73, 58], [87, 83, 79, 78, 77, 72, 71], [93, 80, 78, 76, 74, 73, 71], [83, 79, 73, 71, 57], [91, 84, 81, 72, 63], [82, 78, 77, 73, 64], [85, 75, 73, 72, 71], [95, 94, 76, 74, 71], [83, 76, 74, 72], [92, 80, 72, 71], [99, 84, 78, 72], [93, 91, 81, 77], [81, 73, 71], [88, 82, 71], [76, 74], [75, 71], [77, 72], [81, 71], [77, 71], [86, 76], [75], [72], [75], [71], [77], [81], [80], [73], [102], [102], [102], [102], [102], [102], [102], [102], [102], [102], [102], [102], [102], [102], [102], [102], [102], [102], [102], [102], [102], [102], [102], [102], [102], [102], [102], [102], [102], [102], [102], []]
letting durations = [[0], [4, 4, 9], [1, 2, 3], [1, 2, 4], [2, 5, 7], [2, 4, 10], [1, 7, 9], [4, 4, 7], [1, 5, 6], [2, 4, 8], [1, 7, 10], [7, 7, 9], [6, 7, 9], [5, 7, 7], [2, 8, 9], [5, 6, 10], [1, 2, 8], [1, 8, 9], [1, 2, 9], [1, 4, 10], [3, 6, 10], [4, 5, 8], [1, 8, 9], [4, 6, 9], [5, 7, 10], [6, 8, 9], [5, 9, 9], [1, 6, 10], [2, 3, 10], [5, 6, 9], [1, 8, 10], [1, 6, 10], [7, 9, 10], [3, 5, 10], [3, 4, 6], [1, 2, 10], [6, 7, 8], [3, 7, 10], [4, 6, 7], [2, 2, 7], [4, 7, 10], [1, 7, 10], [1, 2, 10], [4, 5, 8], [1, 2, 7], [1, 7, 7], [1, 3, 6], [4, 4, 8], [1, 7, 9], [4, 7, 8], [3, 5, 6], [1, 3, 10], [2, 6, 8], [3, 4, 5], [5, 6, 9], [4, 5, 10], [3, 6, 10], [5, 6, 9], [1, 2, 3], [7, 9, 9], [1, 4, 8], [1, 2, 10], [2, 2, 3], [1, 7, 10], [2, 3, 6], [6, 8, 10], [6, 6, 7], [6, 8, 9], [3, 4, 5], [6, 8, 9], [3, 5, 6], [1, 2, 8], [1, 3, 5], [1, 7, 9], [3, 8, 9], [2, 4, 5], [5, 7, 9], [1, 2, 5], [4, 5, 5], [2, 3, 3], [2, 7, 10], [1, 2, 3], [3, 6, 10], [1, 1, 10], [3, 5, 5], [2, 3, 6], [1, 3, 7], [1, 6, 10], [1, 4, 6], [5, 9, 10], [5, 6, 7], [1, 2, 4], [2, 6, 7], [4, 9, 10], [1, 3, 4], [4, 6, 8], [3, 8, 10], [2, 5, 6], [9, 9, 10], [6, 7, 9], [4, 5, 7], [0]]
letting resourceUsage = [[[0, 0, 0, 0]], [[6, 0, 4, 6], [0, 6, 4, 5], [0, 6, 4, 4]], [[0, 8, 3, 6], [0, 7, 2, 5], [6, 0, 2, 5]], [[7, 0, 7, 8], [6, 0, 3, 6], [0, 6, 1, 3]], [[6, 0, 9, 6], [4, 0, 6, 4], [4, 0, 5, 3]], [[9, 0, 10, 7], [6, 0, 4, 7], [5, 0, 4, 6]], [[0, 4, 6, 7], [0, 2, 3, 5], [4, 0, 1, 4]], [[0, 1, 10, 9], [1, 0, 9, 6], [1, 0, 8, 3]], [[0, 5, 5, 6], [3, 0, 4, 5], [3, 0, 4, 4]], [[0, 6, 6, 4], [4, 0, 4, 4], [4, 0, 3, 4]], [[0, 7, 9, 8], [0, 6, 8, 6], [0, 4, 7, 5]], [[7, 0, 4, 5], [0, 6, 2, 4], [7, 0, 1, 3]], [[0, 6, 4, 9], [0, 5, 4, 7], [1, 0, 4, 2]], [[0, 6, 10, 10], [0, 3, 7, 10], [2, 0, 5, 10]], [[4, 0, 8, 3], [4, 0, 4, 2], [4, 0, 2, 2]], [[7, 0, 5, 5], [0, 8, 4, 2], [0, 8, 4, 1]], [[9, 0, 8, 5], [6, 0, 5, 5], [5, 0, 4, 3]], [[10, 0, 2, 3], [0, 7, 2, 3], [0, 5, 2, 1]], [[6, 0, 8, 9], [2, 0, 6, 4], [1, 0, 4, 2]], [[7, 0, 10, 10], [5, 0, 6, 9], [0, 2, 4, 9]], [[0, 8, 8, 10], [9, 0, 5, 10], [9, 0, 4, 10]], [[0, 8, 9, 9], [0, 8, 9, 8], [4, 0, 9, 9]], [[3, 0, 7, 9], [0, 8, 6, 6], [0, 8, 6, 5]], [[0, 7, 9, 3], [0, 7, 9, 2], [0, 4, 9, 3]], [[0, 7, 6, 8], [0, 4, 4, 7], [0, 2, 3, 5]], [[6, 0, 5, 6], [0, 3, 3, 5], [0, 1, 3, 4]], [[10, 0, 9, 8], [9, 0, 8, 5], [0, 5, 8, 2]], [[0, 8, 9, 3], [0, 5, 6, 3], [6, 0, 5, 3]], [[8, 0, 5, 10], [6, 0, 4, 10], [0, 8, 3, 10]], [[4, 0, 7, 4], [3, 0, 6, 3], [0, 7, 5, 3]], [[7, 0, 7, 8], [0, 8, 5, 7], [4, 0, 4, 5]], [[7, 0, 9, 7], [0, 5, 8, 6], [3, 0, 8, 6]], [[5, 0, 9, 8], [0, 3, 9, 5], [5, 0, 9, 4]], [[3, 0, 4, 9], [0, 3, 3, 5], [1, 0, 2, 1]], [[5, 0, 6, 3], [5, 0, 6, 2], [3, 0, 6, 2]], [[0, 5, 3, 8], [0, 4, 3, 6], [3, 0, 2, 3]], [[0, 5, 8, 5], [0, 5, 7, 2], [0, 4, 6, 2]], [[6, 0, 9, 9], [5, 0, 7, 8], [0, 2, 2, 7]], [[0, 8, 10, 7], [6, 0, 10, 6], [5, 0, 10, 2]], [[8, 0, 4, 8], [0, 8, 4, 7], [0, 6, 2, 6]], [[0, 7, 4, 4], [0, 5, 3, 4], [0, 1, 2, 4]], [[10, 0, 6, 4], [0, 5, 6, 2], [0, 4, 5, 2]], [[6, 0, 1, 10], [5, 0, 1, 8], [3, 0, 1, 7]], [[6, 0, 8, 7], [6, 0, 5, 6], [0, 5, 4, 6]], [[0, 8, 7, 7], [0, 8, 5, 4], [8, 0, 4, 4]], [[0, 7, 3, 9], [4, 0, 3, 8], [0, 5, 3, 6]], [[0, 7, 6, 7], [0, 5, 3, 7], [4, 0, 3, 4]], [[9, 0, 9, 9], [0, 3, 9, 6], [0, 1, 9, 4]], [[6, 0, 7, 6], [0, 6, 3, 4], [5, 0, 3, 2]], [[0, 7, 5, 8], [7, 0, 5, 7], [0, 6, 5, 6]], [[9, 0, 7, 9], [0, 2, 6, 9], [0, 2, 2, 8]], [[0, 7, 4, 3], [0, 5, 3, 2], [8, 0, 2, 1]], [[0, 9, 8, 9], [8, 0, 5, 7], [8, 0, 2, 7]], [[9, 0, 7, 6], [0, 8, 7, 6], [9, 0, 4, 6]], [[0, 9, 4, 8], [0, 6, 3, 6], [3, 0, 3, 6]], [[8, 0, 5, 9], [7, 0, 4, 9], [0, 3, 4, 8]], [[6, 0, 6, 6], [5, 0, 5, 5], [3, 0, 2, 3]], [[8, 0, 7, 4], [0, 2, 5, 4], [7, 0, 3, 4]], [[0, 5, 10, 5], [3, 0, 9, 3], [2, 0, 8, 2]], [[10, 0, 8, 5], [0, 6, 8, 4], [8, 0, 6, 2]], [[9, 0, 8, 3], [0, 4, 7, 2], [0, 3, 3, 2]], [[0, 8, 7, 6], [4, 0, 7, 6], [2, 0, 5, 6]], [[0, 6, 7, 3], [8, 0, 4, 3], [8, 0, 3, 1]], [[0, 8, 5, 8], [5, 0, 5, 5], [5, 0, 4, 2]], [[3, 0, 6, 10], [0, 1, 3, 8], [0, 1, 3, 5]], [[0, 7, 5, 8], [2, 0, 5, 3], [0, 4, 4, 1]], [[7, 0, 6, 6], [0, 2, 6, 6], [0, 2, 6, 2]], [[0, 1, 8, 8], [3, 0, 6, 8], [2, 0, 5, 8]], [[6, 0, 8, 5], [0, 8, 8, 3], [0, 8, 6, 2]], [[5, 0, 4, 8], [3, 0, 3, 8], [2, 0, 3, 7]], [[5, 0, 9, 9], [0, 8, 9, 9], [3, 0, 9, 8]], [[3, 0, 7, 7], [0, 5, 4, 5], [2, 0, 4, 4]], [[8, 0, 6, 5], [0, 5, 3, 2], [3, 0, 2, 1]], [[4, 0, 9, 5], [3, 0, 8, 3], [2, 0, 7, 2]], [[8, 0, 7, 7], [0, 3, 5, 6], [0, 2, 5, 6]], [[8, 0, 8, 5], [5, 0, 5, 4], [5, 0, 5, 3]], [[0, 6, 7, 3], [7, 0, 4, 3], [0, 2, 2, 2]], [[7, 0, 9, 9], [0, 6, 9, 7], [0, 4, 9, 5]], [[7, 0, 8, 9], [4, 0, 6, 7], [0, 4, 5, 7]], [[0, 7, 6, 2], [0, 6, 6, 1], [6, 0, 6, 1]], [[8, 0, 9, 2], [5, 0, 8, 1], [2, 0, 8, 1]], [[0, 10, 6, 2], [0, 7, 4, 2], [6, 0, 2, 2]], [[5, 0, 8, 10], [0, 5, 8, 7], [0, 5, 7, 3]], [[0, 7, 7, 8], [3, 0, 6, 3], [3, 0, 6, 2]], [[0, 10, 9, 10], [6, 0, 8, 9], [0, 3, 8, 8]], [[0, 9, 1, 7], [0, 4, 1, 7], [0, 1, 1, 7]], [[0, 9, 5, 5], [0, 8, 5, 2], [3, 0, 1, 2]], [[0, 8, 5, 9], [10, 0, 5, 5], [10, 0, 5, 4]], [[9, 0, 7, 8], [6, 0, 5, 7], [0, 6, 1, 3]], [[3, 0, 6, 6], [0, 6, 4, 4], [2, 0, 3, 4]], [[10, 0, 8, 10], [0, 6, 8, 8], [0, 6, 8, 5]], [[7, 0, 3, 6], [7, 0, 3, 5], [3, 0, 2, 6]], [[0, 9, 8, 7], [0, 9, 8, 4], [0, 9, 8, 1]], [[0, 9, 5, 8], [0, 6, 5, 4], [10, 0, 5, 3]], [[6, 0, 9, 9], [0, 4, 7, 6], [2, 0, 5, 5]], [[5, 0, 9, 5], [5, 0, 7, 4], [0, 1, 7, 2]], [[3, 0, 6, 4], [3, 0, 6, 2], [0, 6, 3, 2]], [[9, 0, 10, 6], [0, 2, 10, 5], [0, 2, 10, 4]], [[0, 3, 1, 6], [6, 0, 1, 6], [0, 2, 1, 6]], [[0, 3, 7, 8], [0, 3, 4, 7], [0, 1, 3, 6]], [[9, 0, 7, 7], [6, 0, 3, 6], [0, 1, 1, 3]], [[0, 0, 0, 0]]]
